
Gurobi 11.0.3 (mac64[x86]) logging started Tue Apr 15 17:55:55 2025

Set parameter LogFile to value "Results/SanityCheck/try_23_big.log"
Set parameter TimeLimit to value 84600
Set parameter Method to value 2
Set parameter Crossover to value 0
Set parameter BarHomogeneous to value 1
Set parameter BarConvTol to value 1e-10
Gurobi Optimizer version 11.0.3 build v11.0.3rc0 (mac64[x86] - Darwin 23.4.0 23E214)

CPU model: Intel(R) Core(TM) i7-1060NG7 CPU @ 1.20GHz
Thread count: 4 physical cores, 8 logical processors, using up to 8 threads

Optimize a model with 3423440 rows, 3705248 columns and 14693232 nonzeros
Model fingerprint: 0x93bc29cf
Coefficient statistics:
  Matrix range     [2e-01, 1e+00]
  Objective range  [6e-05, 5e+00]
  Bounds range     [0e+00, 0e+00]
  RHS range        [1e-02, 3e+03]
Presolve removed 1939312 rows and 2540000 columns (presolve time = 5s) ...
Presolve removed 3190254 rows and 3325828 columns (presolve time = 10s) ...
Presolve removed 3190254 rows and 3325828 columns
Presolve time: 10.38s
Presolved: 233186 rows, 379420 columns, 1649139 nonzeros
Ordering time: 0.03s

Barrier statistics:
 Dense cols : 28
 AA' NZ     : 1.257e+05
 Factor NZ  : 5.089e+05 (roughly 13 MB of memory)
 Factor Ops : 3.795e+07 (less than 1 second per iteration)
 Threads    : 4

                  Objective                Residual
Iter       Primal          Dual         Primal    Dual     Compl     Time
   0   8.36200924e+06  1.51216653e+08  9.43e+04 1.17e+01  3.48e+05    11s
   1  -1.69407113e+06  1.08947571e+08  4.74e+04 1.29e+01  1.19e+05    11s
   2  -9.27867170e+06  4.66056879e+07  1.12e+04 5.19e-01  1.96e+04    11s
   3  -4.58442446e+06  6.44603410e+06  2.37e+03 6.12e-02  4.11e+03    11s
   4  -1.11640448e+06  1.02443050e+06  6.18e+02 7.78e-03  9.66e+02    11s
   5  -2.48728964e+05  2.38236112e+05  1.76e+02 1.77e-04  2.17e+02    11s
   6  -1.14288186e+05  1.50994699e+05  8.92e+01 1.37e-05  1.05e+02    11s
   7  -6.39367724e+04  9.56866393e+04  5.04e+01 1.29e-12  5.76e+01    11s
   8  -1.81265902e+04  8.80604911e+04  2.10e+01 1.22e-12  2.97e+01    11s
   9  -6.91806221e+02  3.73422608e+04  5.65e+00 3.99e-12  8.12e+00    11s
  10   3.91964139e+03  1.82720415e+04  2.05e+00 3.22e-12  2.50e+00    11s
  11   6.00096780e+03  1.24141988e+04  9.28e-01 2.13e-12  1.01e+00    11s
  12   6.78326783e+03  9.59296726e+03  4.13e-01 1.26e-12  4.06e-01    11s
  13   7.10955140e+03  8.43701916e+03  2.26e-01 1.70e-12  1.87e-01    11s
  14   7.33955580e+03  7.94089371e+03  1.02e-01 1.03e-12  8.19e-02    11s
  15   7.43893713e+03  7.70992496e+03  5.86e-02 7.35e-13  3.79e-02    11s
  16   7.50058176e+03  7.64833571e+03  3.31e-02 1.46e-12  2.07e-02    11s
  17   7.54155375e+03  7.63384301e+03  1.90e-02 1.21e-12  1.27e-02    11s
  18   7.56395213e+03  7.61865768e+03  1.05e-02 2.44e-13  7.40e-03    11s
  19   7.58132373e+03  7.60790345e+03  4.67e-03 4.12e-12  3.54e-03    11s
  20   7.59062945e+03  7.60205711e+03  1.92e-03 8.56e-12  1.51e-03    11s
  21   7.59546381e+03  7.60039037e+03  6.07e-04 4.93e-12  6.23e-04    11s
  22   7.59670551e+03  7.59930822e+03  2.88e-04 8.35e-12  3.25e-04    11s
  23   7.59720442e+03  7.59811232e+03  1.65e-04 8.37e-11  1.22e-04    11s
  24   7.59766409e+03  7.59795924e+03  5.63e-05 9.27e-11  3.98e-05    11s
  25   7.59779943e+03  7.59790007e+03  1.97e-05 4.29e-11  1.36e-05    11s
  26   7.59785010e+03  7.59789430e+03  8.47e-06 2.10e-09  5.97e-06    11s
  27   7.59788497e+03  7.59788968e+03  7.95e-07 1.50e-09  6.22e-07    11s
  28   7.59788827e+03  7.59788855e+03  6.21e-08 1.81e-09  3.91e-08    11s
  29   7.59788854e+03  7.59788855e+03  3.20e-10 7.65e-12  2.01e-10    11s
  30   7.59788854e+03  7.59788855e+03  1.36e-08 2.57e-12  3.37e-11    11s
  31   7.59788855e+03  7.59788855e+03  1.30e-08 1.12e-11  3.20e-11    11s
  32   7.59788855e+03  7.59788855e+03  9.00e-10 3.45e-12  6.80e-14    11s

Barrier solved model in 32 iterations and 11.39 seconds (6.74 work units)
Optimal objective 7.59788855e+03

